100 3500
1 18
2 12
1 23
2 19
2 26
2 45
2 36
2 1
2 9
2 8
1 36
1 25
2 31
1 45
2 4
1 29
1 17
2 37
1 34
1 14
2 3
1 22
1 50
1 21
2 4
1 50
2 48
2 5
1 11
1 23
1 16
1 10
2 7
1 24
2 34
1 2
2 20
2 39
1 13
2 10
1 16
2 30
2 24
1 28
1 6
1 46
1 33
1 39
2 15
2 48
2 44
2 41
2 9
2 13
1 21
2 26
1 42
1 12
1 47
2 28
2 15
2 11
1 3
1 32
2 35
1 43
2 47
1 43
2 7
1 2
1 41
1 40
2 1
2 17
2 31
2 14
1 20
2 44
1 19
1 22
2 32
1 35
2 18
2 33
1 38
1 27
2 40
2 49
1 46
1 37
1 27
2 5
2 38
1 8
1 42
2 6
2 29
2 49
1 30
2 25
